(declare-fun bvlambda_28_ () (_ BitVec 1))
(declare-fun a131 () (Array (_ BitVec 1) (_ BitVec 15)))
(assert
(let (($e1 (_ bv0 1)))
(let (($e18 (_ bv0 15)))
(let (($e28 (_ bv0 14)))
(let (($e30 (_ bv0 13)))
(let (($e157        bvlambda_28_       ))
(let (($e168             $e157             ))
(let (($e169               $e168                ))
(let (($e173              $e169 ))
(let (($e176                            #b1     ))
(let (($e177                             $e176 ))
(let (($e178        $e177       ))
(let (($e179 (concat $e28 $e178)))
(let (($e180                  $e173 ))
(let (($e183                                     #b0 ))
(let (($e185 (concat        $e30  $e183)))
(let (($e186                    $e185       ))
(let (($e187 (concat $e186 $e183)))
(let (($e188 (store a131 (bvnot $e1) $e187)))
(let (($e189 (store $e188        $e180  $e179)))
(let (($e190 (select $e189 (bvnot $e1))))
                  (= (bvnot $e18) $e190)
                                                                                                                                                                                                                                                                                                                                                                                                                                                                                                                                                                                                                                                                                                                                                                                                                                                                                                                                                                                                                                                                                                                                                                                                                                                                                                                                                                                                                                                                                                                                                                                                                                                                                                                                                                                                                                                                                                                                                                                                                                                                                                                                                                                                                                                                                                                                                                                                                                                                                                                                                                                                                                                                                                                                                                                                                                                                                                                                                                                                                                                                                                                                                                                             )))))) )  )))))  )   ))          )                                                                        ) )         )                ))
